10J3M/DAT/10J3MULR-12.dat
10 3
43.9624 11.9993
21.2255 13.9298
9.2223 17.1172
24.4307 41.6347
18.9861 44.1019
28.617 37.5675
40.6483 5.8742
15.4502 38.2419
10.0784 35.9083
14.0142 30.4166
92.2638