10J3M/SOL/10J3MULR-12.sol
solution status: optimal solution found
objective value:                     104.739194549597
x#1#2                                               1 	(obj:0)
x#2#3                                               1 	(obj:0)
x#3#1                                               1 	(obj:0)
x#4#2                               0.793519157531482 	(obj:0)
x#4#3                               0.206480842468517 	(obj:0)
x#5#1                                0.14123607369874 	(obj:0)
x#5#2                               0.653077212422224 	(obj:0)
x#5#3                               0.205686713879036 	(obj:0)
x#6#1                                               1 	(obj:0)
x#7#3                                               1 	(obj:0)
x#8#2                                               1 	(obj:0)
x#9#1                               0.509152953545353 	(obj:0)
x#9#3                               0.490845005309238 	(obj:0)
x#10#1                                              1 	(obj:0)
z                                    104.739194549597 	(obj:1)
